Problem:    
Rows:       260
Columns:    89 (72 integer, 72 binary)
Non-zeros:  974
Status:     INTEGER OPTIMAL
Objective:  value = 89.059179 (MINimum)

   No.   Row name        Activity     Lower bound   Upper bound
------ ------------    ------------- ------------- -------------
     1 r.5                   1089.06             0               
     2 r.6                   -969.36       -977.93               
     3 r.7                   89.0592             0               
     4 r.8                   -949.98      -955.613               
     5 r.9                   1089.06             0               
     6 r.10                 -946.595      -977.987               
     7 r.11                  89.0592             0               
     8 r.12                   53.405      -955.809               
     9 r.13                  89.0592             0               
    10 r.14                  45.1979       -995.22               
    11 r.15                  1089.06             0               
    12 r.16                 -956.425      -993.819               
    13 r.17                  89.0592             0               
    14 r.18                  54.1565      -990.788               
    15 r.19                  1089.06             0               
    16 r.20                 -963.477      -990.489               
    17 r.21                  89.0592             0               
    18 r.22                  44.4464      -990.013               
    19 r.23                  1089.06             0               
    20 r.24                 -972.988      -978.621               
    21 r.25                  1089.06             0               
    22 r.26                 -996.622      -996.622               
    23 r.27                  89.0592             0               
    24 r.28                 -994.991      -994.991               
    25 r.29                  1089.06             0               
    26 r.30                 -910.941      -964.346               
    27 r.31                  89.0592             0               
    28 r.32                  89.0592      -953.702               
    29 r.33                  89.0592             0               
    30 r.34                  89.0592       -967.17               
    31 r.35                  1089.06             0               
    32 r.36                 -910.941      -955.387               
    33 r.37                        1             1             = 
    34 r.38                        1             1             = 
    35 r.39                        1             1             = 
    36 r.40                        1             1             = 
    37 r.41                        1             1             = 
    38 r.42                        1             1             = 
    39 r.43                        1             1             = 
    40 r.44                        1             1             = 
    41 r.45                        2             2               
    42 r.46                       -2         -1001               
    43 r.47                 -977.987      -977.987               
    44 r.48                     1000             2               
    45 r.49                    -1000         -1001               
    46 r.50                  3004.26      -955.809               
    47 r.51                     1001             2               
    48 r.52                    -1001         -1001               
    49 r.53                  2013.81       -995.22               
    50 r.54                     1001             2               
    51 r.55                    -1001         -1001               
    52 r.56                  2994.43      -993.819               
    53 r.57                     1001             2               
    54 r.58                    -1001         -1001               
    55 r.59                  2022.76      -990.788               
    56 r.60                     1001             2               
    57 r.61                    -1001         -1001               
    58 r.62                  2987.37      -990.489               
    59 r.63                     1001             2               
    60 r.64                    -1001         -1001               
    61 r.65                  2013.05      -990.013               
    62 r.66                     1001             2               
    63 r.67                    -1001         -1001               
    64 r.68                  2977.86      -978.621               
    65 r.69                 -974.993       -977.93               
    66 r.70                 -955.613      -955.613               
    67 r.71                  28.2446       -977.93               
    68 r.72                  47.6241      -955.613               
    69 r.73                 -942.332      -964.346               
    70 r.74                  57.6676      -953.702               
    71 r.75                  39.9108      -964.346               
    72 r.76                  1039.91      -953.702               
    73 r.77                  57.6676       -967.17               
    74 r.78                 -942.332      -955.387               
    75 r.79                  1039.91       -967.17               
    76 r.80                  39.9108      -955.387               
    77 r.81                        2             2               
    78 r.82                       -2         -1001               
    79 r.83                  977.235       22.0695               
    80 r.84                     1000             2               
    81 r.85                    -1000         -1001               
    82 r.86                  996.615       44.3867               
    83 r.87                     1001             2               
    84 r.88                    -1001         -1001               
    85 r.89                  1991.79       -995.22               
    86 r.90                     1001             2               
    87 r.91                    -1001         -1001               
    88 r.92                  1990.17      -993.819               
    89 r.93                     1001             2               
    90 r.94                    -1001         -1001               
    91 r.95                  2000.75      -990.788               
    92 r.96                     1001             2               
    93 r.97                    -1001         -1001               
    94 r.98                  1983.12      -990.489               
    95 r.99                     1001             2               
    96 r.100                   -1001         -1001               
    97 r.101                 1991.04      -990.013               
    98 r.102                    1001             2               
    99 r.103                   -1001         -1001               
   100 r.104                 1973.61      -978.621               
   101 r.105                -952.228      -977.987               
   102 r.106                 47.7722      -955.809               
   103 r.107                 51.0096      -977.987               
   104 r.108                 1051.01      -955.809               
   105 r.109                -964.346      -964.346               
   106 r.110                 35.6542      -953.702               
   107 r.111                -964.346      -964.346               
   108 r.112                 35.6542      -953.702               
   109 r.113                    1001             2               
   110 r.114                   -1001         -1001               
   111 r.115                 2035.65       -967.17               
   112 r.116                    1001             2               
   113 r.117                   -1001         -1001               
   114 r.118                 2035.65      -955.387               
   115 r.119                    1001             2               
   116 r.120                   -1001         -1001               
   117 r.121                 1986.19       22.0695               
   118 r.122                    1001             2               
   119 r.123                   -1001         -1001               
   120 r.124                 1005.57       44.3867               
   121 r.125                    1001             2               
   122 r.126                   -1001         -1001               
   123 r.127                 2008.96       22.0134               
   124 r.128                    1001             2               
   125 r.129                   -1001         -1001               
   126 r.130                 2008.96       44.1909               
   127 r.131                    1000             2               
   128 r.132                   -1000         -1001               
   129 r.133                 2009.71      -990.788               
   130 r.134                       2             2               
   131 r.135                      -2         -1001               
   132 r.136                 -7.9236      -990.489               
   133 r.137                    1000             2               
   134 r.138                   -1000         -1001               
   135 r.139                    2000      -990.013               
   136 r.140                       2             2               
   137 r.141                      -2         -1001               
   138 r.142                -17.4346      -978.621               
   139 r.143                 39.5651       -995.22               
   140 r.144                -962.058      -993.819               
   141 r.145                  1042.8       -995.22               
   142 r.146                 41.1798      -993.819               
   143 r.147                -955.387      -964.346               
   144 r.148                 44.6128      -953.702               
   145 r.149                -955.387      -964.346               
   146 r.150                 44.6128      -953.702               
   147 r.151                 44.6128       -967.17               
   148 r.152                -955.387      -955.387               
   149 r.153                 44.6128       -967.17               
   150 r.154                -955.387      -955.387               
   151 r.155                    1001             2               
   152 r.156                   -1001         -1001               
   153 r.157                 1977.24       22.0695               
   154 r.158                    1001             2               
   155 r.159                   -1001         -1001               
   156 r.160                 1012.63       44.3867               
   157 r.161                    1001             2               
   158 r.162                   -1001         -1001               
   159 r.163                    2000       22.0134               
   160 r.164                    1001             2               
   161 r.165                   -1001         -1001               
   162 r.166                 2016.01       44.1909               
   163 r.167                    1000             2               
   164 r.168                   -1000         -1001               
   165 r.169                 1991.79        4.7803               
   166 r.170                       2             2               
   167 r.171                      -2         -1001               
   168 r.172                 6.18127       6.18128               
   169 r.173                    1000             2               
   170 r.174                   -1000         -1001               
   171 r.175                 1991.04      -990.013               
   172 r.176                       2             2               
   173 r.177                      -2         -1001               
   174 r.178                -10.3822      -978.621               
   175 r.179                 48.5237      -990.788               
   176 r.180                 -969.11      -990.489               
   177 r.181                 1051.76      -990.788               
   178 r.182                 34.1274      -990.489               
   179 r.183                -964.346      -964.346               
   180 r.184                 35.6542      -953.702               
   181 r.185                -948.335      -964.346               
   182 r.186                 51.6652      -953.702               
   183 r.187                    1000             2               
   184 r.188                   -1000         -1001               
   185 r.189                 2035.65       -967.17               
   186 r.190                       2             2               
   187 r.191                      -2         -1001               
   188 r.192                -948.335      -955.387               
   189 r.193                    1001             2               
   190 r.194                   -1001         -1001               
   191 r.195                 1986.19       22.0695               
   192 r.196                    1001             2               
   193 r.197                   -1001         -1001               
   194 r.198                 1023.01       44.3867               
   195 r.199                    1001             2               
   196 r.200                   -1001         -1001               
   197 r.201                 2008.96       22.0134               
   198 r.202                    1001             2               
   199 r.203                   -1001         -1001               
   200 r.204                 2026.39       44.1909               
   201 r.205                    1000             2               
   202 r.206                   -1000         -1001               
   203 r.207                 2000.75        4.7803               
   204 r.208                       2             2               
   205 r.209                      -2         -1001               
   206 r.210                 16.5634       6.18128               
   207 r.211                    1000             2               
   208 r.212                   -1000         -1001               
   209 r.213                 2009.71        9.2118               
   210 r.214                       2             2               
   211 r.215                      -2         -1001               
   212 r.216                   9.511         9.511               
   213 r.217                 38.8136      -990.013               
   214 r.218                -978.621      -978.621               
   215 r.219                 1042.05      -990.013               
   216 r.220                 24.6164      -978.621               
   217 r.221                    1001             2               
   218 r.222                   -1001         -1001               
   219 r.223                 2044.61      -964.346               
   220 r.224                    1001             2               
   221 r.225                   -1001         -1001               
   222 r.226                 2062.05      -953.702               
   223 r.227                 44.6128       -967.17               
   224 r.228                -955.387      -955.387               
   225 r.229                 62.0474       -967.17               
   226 r.230                -937.953      -955.387               
   227 r.231                -916.574      -964.346               
   228 r.232                 83.4264      -953.702               
   229 r.233                 86.6638      -964.346               
   230 r.234                 1086.66      -953.702               
   231 r.235                    1001             2               
   232 r.236                   -1001         -1001               
   233 r.237                 1955.39        9.9874               
   234 r.238                    1001             2               
   235 r.239                   -1001         -1001               
   236 r.240                 1937.95        21.379               
   237 r.241                    1001             2               
   238 r.242                   -1001         -1001               
   239 r.243                    1000       -967.17               
   240 r.244                    1001             2               
   241 r.245                   -1001         -1001               
   242 r.246                    2000      -955.387               
   243 r.247                    1001             2               
   244 r.248                   -1001         -1001               
   245 r.249                 1964.35       22.0134               
   246 r.250                    1001             2               
   247 r.251                   -1001         -1001               
   248 r.252                 1964.35       44.1909               
   249 r.253                    1000             2               
   250 r.254                   -1000         -1001               
   251 r.255                  1965.1        9.2118               
   252 r.256                       2             2               
   253 r.257                      -2         -1001               
   254 r.258                 947.464         9.511               
   255 r.259                    1001             2               
   256 r.260                   -1001         -1001               
   257 r.261                    3000       35.6542               
   258 r.262                    1001             2               
   259 r.263                   -1001         -1001               
   260 r.264                    2000       46.2984               

   No. Column name       Activity     Lower bound   Upper bound
------ ------------    ------------- ------------- -------------
     1 tt                    89.0592             0               
     2 s_1_1        *              1             0             1 
     3 t_1_1                 57.6676             0               
     4 s_1_8        *              0             0             1 
     5 s_1_7        *              1             0             1 
     6 s_2_1        *              0             0             1 
     7 t_2_1                 1039.91             0               
     8 s_2_8        *              1             0             1 
     9 s_2_7        *              0             0             1 
    10 s_1_2        *              1             0             1 
    11 t_1_2                 35.6542             0               
    12 s_2_2        *              0             0             1 
    13 t_2_2                 35.6542             0               
    14 s_1_3        *              0             0             1 
    15 t_1_3                 44.6128             0               
    16 s_2_3        *              1             0             1 
    17 t_2_3                 44.6128             0               
    18 s_1_4        *              0             0             1 
    19 t_1_4                 35.6542             0               
    20 s_2_4        *              1             0             1 
    21 t_2_4                 51.6652             0               
    22 s_1_5        *              0             0             1 
    23 t_1_5                 44.6128             0               
    24 s_2_5        *              1             0             1 
    25 t_2_5                 62.0474             0               
    26 s_1_6        *              1             0             1 
    27 t_1_6                 83.4264             0               
    28 s_2_6        *              0             0             1 
    29 t_2_6                 1086.66             0               
    30 t_1_7                       0             0               
    31 t_2_7                       0             0               
    32 t_1_8                       0             0               
    33 t_2_8                       0             0               
    34 r_1_1_2      *              0             0             1 
    35 u_1_1_2      *              1             0             1 
    36 r_2_1_2      *              1             0             1 
    37 u_2_1_2      *              0             0             1 
    38 r_1_1_3      *              1             0             1 
    39 u_1_1_3      *              0             0             1 
    40 r_2_1_3      *              1             0             1 
    41 u_2_1_3      *              0             0             1 
    42 r_1_1_4      *              1             0             1 
    43 u_1_1_4      *              0             0             1 
    44 r_2_1_4      *              1             0             1 
    45 u_2_1_4      *              0             0             1 
    46 r_1_1_5      *              1             0             1 
    47 u_1_1_5      *              0             0             1 
    48 r_2_1_5      *              1             0             1 
    49 u_2_1_5      *              0             0             1 
    50 r_1_2_3      *              1             0             1 
    51 u_1_2_3      *              0             0             1 
    52 r_2_2_3      *              1             0             1 
    53 u_2_2_3      *              0             0             1 
    54 r_1_2_4      *              1             0             1 
    55 u_1_2_4      *              0             0             1 
    56 r_2_2_4      *              1             0             1 
    57 u_2_2_4      *              0             0             1 
    58 r_1_2_5      *              1             0             1 
    59 u_1_2_5      *              0             0             1 
    60 r_2_2_5      *              1             0             1 
    61 u_2_2_5      *              0             0             1 
    62 r_1_2_8      *              1             0             1 
    63 u_1_2_8      *              0             0             1 
    64 r_2_2_8      *              1             0             1 
    65 u_2_2_8      *              0             0             1 
    66 r_1_3_4      *              1             0             1 
    67 u_1_3_4      *              0             0             1 
    68 r_2_3_4      *              0             0             1 
    69 u_2_3_4      *              0             0             1 
    70 r_1_3_5      *              1             0             1 
    71 u_1_3_5      *              0             0             1 
    72 r_2_3_5      *              0             0             1 
    73 u_2_3_5      *              0             0             1 
    74 r_1_4_5      *              1             0             1 
    75 u_1_4_5      *              0             0             1 
    76 r_2_4_5      *              0             0             1 
    77 u_2_4_5      *              0             0             1 
    78 r_1_4_8      *              1             0             1 
    79 u_1_4_8      *              0             0             1 
    80 r_2_4_8      *              0             0             1 
    81 u_2_4_8      *              1             0             1 
    82 r_1_5_7      *              1             0             1 
    83 u_1_5_7      *              0             0             1 
    84 r_2_5_7      *              1             0             1 
    85 u_2_5_7      *              0             0             1 
    86 r_1_7_8      *              1             0             1 
    87 u_1_7_8      *              1             0             1 
    88 r_2_7_8      *              1             0             1 
    89 u_2_7_8      *              0             0             1 

Integer feasibility conditions:

KKT.PE: max.abs.err = 4.55e-13 on row 58
        max.rel.err = 1.04e-16 on row 67
        High quality

KKT.PB: max.abs.err = 8.88e-16 on row 168
        max.rel.err = 1.24e-16 on row 168
        High quality

End of output
